Title                                   
   1.00000000000000     
    10.7369587696509932   -0.0000201633911139    0.0000000000000000
    -5.3684968466589034    9.2984691287276942    0.0000000000000000
     0.0000000000000000    0.0000000000000000   16.1930803254531810
   Cs   V    Sb
     8    24    40
Direct
     0.0000000761790062    0.0000000263594444    0.9997754695714209
     0.0000000761790062    0.0000000263594444    0.5002243266725910
     0.0000000761075256    0.5000000263071271    0.9999998981220060
     0.0000000761075256    0.5000000263071271    0.4999998981220060
     0.5000000761790062    0.0000000263594444    0.9999998981220060
     0.5000000761790062    0.0000000263594444    0.4999998981220060
     0.5000000761075256    0.5000000263071271    0.0002243266725907
     0.5000000761075256    0.5000000263071271    0.4997754695714211
     0.2500065117518585    0.9999746173427039    0.2499998980953109
     0.9999746672051170    0.2500064619654532    0.2499998980953109
     0.2500238111825838    0.2500237613668764    0.2499998980953109
     0.2500177310177878    0.0000527971374208    0.7499998980953109
     0.0000528469692624    0.2500176811868753    0.7499998980953109
     0.2499763411039482    0.2499762912996953    0.7499998980953109
     0.2499824212687370    0.4999472555291437    0.2499998980953109
     0.0000254850622437    0.7499935907534572    0.2499998980953109
     0.2499645355728473    0.7500355669294103    0.2499998980953109
     0.2499936405346663    0.5000254353238606    0.7499998980953109
     0.9999473052457891    0.7499823714273792    0.7499998980953109
     0.2500356167136774    0.7499644857371612    0.7499998980953109
     0.7499936405538363    0.0000254352715289    0.2499998980953109
     0.4999473053172622    0.2499823714796963    0.2499998980953109
     0.7500356167851580    0.2499644857894783    0.2499998980953109
     0.7499824211972635    0.9999472554768265    0.7499998980953109
     0.5000254850814148    0.2499935907011183    0.7499998980953109
     0.7499645355013739    0.2500355668770932    0.7499998980953109
     0.7500177310892683    0.5000527971897379    0.2499998980953109
     0.5000528469500988    0.7500176812392065    0.2499998980953109
     0.7499763410324747    0.7499762912473780    0.2499998980953109
     0.7500065117326955    0.4999746173950426    0.7499998980953109
     0.4999746671336371    0.7500064619131286    0.7499998980953109
     0.7500238111634132    0.7500237614192078    0.7499998980953109
     0.0000000761790062    0.0000000263594444    0.2499998980953109
     0.1666469117738381    0.8333531906610434    0.3871984153267385
     0.8333532404412132    0.1666468619532108    0.3871984153267385
     0.1666768105039974    0.8333232919617740    0.6128486501660481
     0.8333233418016978    0.1666767606524517    0.6128486501660481
     0.0000000761790062    0.0000000263594444    0.7499998980953109
     0.1666768105039974    0.8333232919617740    0.8871511460245737
     0.8333233418016978    0.1666767606524517    0.8871511460245737
     0.1666469117738381    0.8333531906610434    0.1128013809172732
     0.8333532404412132    0.1666468619532108    0.1128013809172732
     0.0000000761075256    0.5000000263071271    0.2499998980953109
     0.1666137715809441    0.3332750653557832    0.3871806389500976
     0.8333863806864175    0.6667249873631198    0.3871806389500976
     0.1667250371063913    0.3333863308567374    0.6128191572405244
     0.8332751151086668    0.6666137217575102    0.6128191572405244
     0.0000000761075256    0.5000000263071271    0.7499998980953109
     0.1667250371063913    0.3333863308567374    0.8871806389500974
     0.8332751151086668    0.6666137217575102    0.8871806389500974
     0.1666137715809441    0.3332750653557832    0.1128191572405243
     0.8333863806864175    0.6667249873631198    0.1128191572405243
     0.5000000761790062    0.0000000263594444    0.2499998980953109
     0.6667250371778650    0.8333863309090542    0.3871806389500976
     0.3332751150894965    0.1666137218098484    0.3871806389500976
     0.6666137716001073    0.8332750653034517    0.6128191572405244
     0.3333863807578982    0.1667249874154371    0.6128191572405244
     0.5000000761790062    0.0000000263594444    0.7499998980953109
     0.6666137716001073    0.8332750653034517    0.8871806389500974
     0.3333863807578982    0.1667249874154371    0.8871806389500974
     0.6667250371778650    0.8333863309090542    0.1128191572405243
     0.3332751150894965    0.1666137218098484    0.1128191572405243
     0.5000000761075256    0.5000000263071271    0.2499998980953109
     0.6666768104848270    0.3333232920141126    0.3871511460245742
     0.3333233417825343    0.6666767607047904    0.3871511460245742
     0.6666469118453116    0.3333531907133608    0.6128013809172730
     0.3333532405126939    0.6666468620055281    0.6128013809172730
     0.5000000761075256    0.5000000263071271    0.7499998980953109
     0.6666469118453116    0.3333531907133608    0.8871984153267389
     0.3333532405126939    0.6666468620055281    0.8871984153267389
     0.6666768104848270    0.3333232920141126    0.1128486501660477
     0.3333233417825343    0.6666767607047904    0.1128486501660477
 
  0.00000000E+00  0.00000000E+00  0.00000000E+00
  0.00000000E+00  0.00000000E+00  0.00000000E+00
  0.00000000E+00  0.00000000E+00  0.00000000E+00
  0.00000000E+00  0.00000000E+00  0.00000000E+00
  0.00000000E+00  0.00000000E+00  0.00000000E+00
  0.00000000E+00  0.00000000E+00  0.00000000E+00
  0.00000000E+00  0.00000000E+00  0.00000000E+00
  0.00000000E+00  0.00000000E+00  0.00000000E+00
  0.00000000E+00  0.00000000E+00  0.00000000E+00
  0.00000000E+00  0.00000000E+00  0.00000000E+00
  0.00000000E+00  0.00000000E+00  0.00000000E+00
  0.00000000E+00  0.00000000E+00  0.00000000E+00
  0.00000000E+00  0.00000000E+00  0.00000000E+00
  0.00000000E+00  0.00000000E+00  0.00000000E+00
  0.00000000E+00  0.00000000E+00  0.00000000E+00
  0.00000000E+00  0.00000000E+00  0.00000000E+00
  0.00000000E+00  0.00000000E+00  0.00000000E+00
  0.00000000E+00  0.00000000E+00  0.00000000E+00
  0.00000000E+00  0.00000000E+00  0.00000000E+00
  0.00000000E+00  0.00000000E+00  0.00000000E+00
  0.00000000E+00  0.00000000E+00  0.00000000E+00
  0.00000000E+00  0.00000000E+00  0.00000000E+00
  0.00000000E+00  0.00000000E+00  0.00000000E+00
  0.00000000E+00  0.00000000E+00  0.00000000E+00
  0.00000000E+00  0.00000000E+00  0.00000000E+00
  0.00000000E+00  0.00000000E+00  0.00000000E+00
  0.00000000E+00  0.00000000E+00  0.00000000E+00
  0.00000000E+00  0.00000000E+00  0.00000000E+00
  0.00000000E+00  0.00000000E+00  0.00000000E+00
  0.00000000E+00  0.00000000E+00  0.00000000E+00
  0.00000000E+00  0.00000000E+00  0.00000000E+00
  0.00000000E+00  0.00000000E+00  0.00000000E+00
  0.00000000E+00  0.00000000E+00  0.00000000E+00
  0.00000000E+00  0.00000000E+00  0.00000000E+00
  0.00000000E+00  0.00000000E+00  0.00000000E+00
  0.00000000E+00  0.00000000E+00  0.00000000E+00
  0.00000000E+00  0.00000000E+00  0.00000000E+00
  0.00000000E+00  0.00000000E+00  0.00000000E+00
  0.00000000E+00  0.00000000E+00  0.00000000E+00
  0.00000000E+00  0.00000000E+00  0.00000000E+00
  0.00000000E+00  0.00000000E+00  0.00000000E+00
  0.00000000E+00  0.00000000E+00  0.00000000E+00
  0.00000000E+00  0.00000000E+00  0.00000000E+00
  0.00000000E+00  0.00000000E+00  0.00000000E+00
  0.00000000E+00  0.00000000E+00  0.00000000E+00
  0.00000000E+00  0.00000000E+00  0.00000000E+00
  0.00000000E+00  0.00000000E+00  0.00000000E+00
  0.00000000E+00  0.00000000E+00  0.00000000E+00
  0.00000000E+00  0.00000000E+00  0.00000000E+00
  0.00000000E+00  0.00000000E+00  0.00000000E+00
  0.00000000E+00  0.00000000E+00  0.00000000E+00
  0.00000000E+00  0.00000000E+00  0.00000000E+00
  0.00000000E+00  0.00000000E+00  0.00000000E+00
  0.00000000E+00  0.00000000E+00  0.00000000E+00
  0.00000000E+00  0.00000000E+00  0.00000000E+00
  0.00000000E+00  0.00000000E+00  0.00000000E+00
  0.00000000E+00  0.00000000E+00  0.00000000E+00
  0.00000000E+00  0.00000000E+00  0.00000000E+00
  0.00000000E+00  0.00000000E+00  0.00000000E+00
  0.00000000E+00  0.00000000E+00  0.00000000E+00
  0.00000000E+00  0.00000000E+00  0.00000000E+00
  0.00000000E+00  0.00000000E+00  0.00000000E+00
  0.00000000E+00  0.00000000E+00  0.00000000E+00
  0.00000000E+00  0.00000000E+00  0.00000000E+00
  0.00000000E+00  0.00000000E+00  0.00000000E+00
  0.00000000E+00  0.00000000E+00  0.00000000E+00
  0.00000000E+00  0.00000000E+00  0.00000000E+00
  0.00000000E+00  0.00000000E+00  0.00000000E+00
  0.00000000E+00  0.00000000E+00  0.00000000E+00
  0.00000000E+00  0.00000000E+00  0.00000000E+00
  0.00000000E+00  0.00000000E+00  0.00000000E+00
  0.00000000E+00  0.00000000E+00  0.00000000E+00
