Title                                   
   1.00000000000000     
    10.8657058286993706   -0.0007404224612820    0.0000000000000000
    -5.4334941388341909    9.4096070840961676    0.0000000000000000
     0.0000000000000000    0.0000000000000000   16.9335465189575238
   Cs   V    Sb
     8    24    40
Direct
     0.0000000761790062    0.0000000263594444    0.9991465400046182
     0.0000000761790062    0.0000000263594444    0.5008532562393937
     0.0000000761075256    0.5000000263071271    0.9999998981220060
     0.0000000761075256    0.5000000263071271    0.4999998981220060
     0.5000000761790062    0.0000000263594444    0.9999998981220060
     0.5000000761790062    0.0000000263594444    0.4999998981220060
     0.5000000761075256    0.5000000263071271    0.0008532562393937
     0.5000000761075256    0.5000000263071271    0.4991465400046183
     0.2468428368664511    0.9933987855204383    0.2499998980953109
     0.9933988353806302    0.2468427870799028    0.2499998980953109
     0.2527525570052442    0.2527525071891763    0.2499998980953109
     0.2476256327905291    0.0003764816876290    0.7499998980953109
     0.0003765315199821    0.2476255829602005    0.7499998980953109
     0.2472475952812876    0.2472475454773953    0.7499998980953109
     0.2523745194959957    0.4996235709789353    0.2499998980953109
     0.0066013168867312    0.7531572656390072    0.2499998980953109
     0.2465841470872156    0.7534159554126737    0.2499998980953109
     0.2531573154200736    0.5066012671461262    0.7499998980953109
     0.9996236206950692    0.7523744696540537    0.7499998980953109
     0.2534160051993091    0.7465840972538978    0.7499998980953109
     0.7531573154392442    0.0066012670937947    0.2499998980953109
     0.4996236207665425    0.2523744697063711    0.2499998980953109
     0.7534160052707900    0.2465840973062155    0.2499998980953109
     0.7523745194245222    0.9996235709266182    0.7499998980953109
     0.5066013169059016    0.2531572655866688    0.7499998980953109
     0.7465841470157418    0.2534159553603562    0.7499998980953109
     0.7476256328620097    0.5003764817399462    0.2499998980953109
     0.5003765315008187    0.7476255830125320    0.2499998980953109
     0.7472475952098144    0.7472475454250784    0.2499998980953109
     0.7468428368472876    0.4933987855727771    0.7499998980953109
     0.4933988353091497    0.7468427870275786    0.7499998980953109
     0.7527525569860735    0.7527525072415073    0.7499998980953109
     0.0000000761790062    0.0000000263594444    0.2499998980953109
     0.1666093008362539    0.8333908015985055    0.3847734173558948
     0.8333908513787974    0.1666092510157487    0.3847734173558948
     0.1671083644158631    0.8328917380503414    0.6183517450371878
     0.8328917878898319    0.1671083145638843    0.6183517450371878
     0.0000000761790062    0.0000000263594444    0.7499998980953109
     0.1671083644158631    0.8328917380503414    0.8816480511534339
     0.8328917878898319    0.1671083145638843    0.8816480511534339
     0.1666093008362539    0.8333908015985055    0.1152263788881173
     0.8333908513787974    0.1666092510157487    0.1152263788881173
     0.0000000761075256    0.5000000263071271    0.2499998980953109
     0.1656435728743606    0.3326392360323401    0.3820076572679504
     0.8343565793930007    0.6673608166865629    0.3820076572679504
     0.1673608664299593    0.3343565295629145    0.6179921389226716
     0.8326392857850992    0.6656435230513332    0.6179921389226716
     0.0000000761075256    0.5000000263071271    0.7499998980953109
     0.1673608664299593    0.3343565295629145    0.8820076572679502
     0.8326392857850992    0.6656435230513332    0.8820076572679502
     0.1656435728743606    0.3326392360323401    0.1179921389226715
     0.8343565793930007    0.6673608166865629    0.1179921389226715
     0.5000000761790062    0.0000000263594444    0.2499998980953109
     0.6673608665014327    0.8343565296152312    0.3820076572679504
     0.3326392857659284    0.1656435231036715    0.3820076572679504
     0.6656435728935240    0.8326392359800087    0.6179921389226716
     0.3343565794644812    0.1673608167388799    0.6179921389226716
     0.5000000761790062    0.0000000263594444    0.7499998980953109
     0.6656435728935240    0.8326392359800087    0.8820076572679502
     0.3343565794644812    0.1673608167388799    0.8820076572679502
     0.6673608665014327    0.8343565296152312    0.1179921389226715
     0.3326392857659284    0.1656435231036715    0.1179921389226715
     0.5000000761075256    0.5000000263071271    0.2499998980953109
     0.6671083643966929    0.3328917381026802    0.3816480511534341
     0.3328917878706686    0.6671083146162230    0.3816480511534341
     0.6666093009077273    0.3333908016508228    0.6152263788881174
     0.3333908514502777    0.6666092510680660    0.6152263788881174
     0.5000000761075256    0.5000000263071271    0.7499998980953109
     0.6666093009077273    0.3333908016508228    0.8847734173558945
     0.3333908514502777    0.6666092510680660    0.8847734173558945
     0.6671083643966929    0.3328917381026802    0.1183517450371877
     0.3328917878706686    0.6671083146162230    0.1183517450371877
 
  0.00000000E+00  0.00000000E+00  0.00000000E+00
  0.00000000E+00  0.00000000E+00  0.00000000E+00
  0.00000000E+00  0.00000000E+00  0.00000000E+00
  0.00000000E+00  0.00000000E+00  0.00000000E+00
  0.00000000E+00  0.00000000E+00  0.00000000E+00
  0.00000000E+00  0.00000000E+00  0.00000000E+00
  0.00000000E+00  0.00000000E+00  0.00000000E+00
  0.00000000E+00  0.00000000E+00  0.00000000E+00
  0.00000000E+00  0.00000000E+00  0.00000000E+00
  0.00000000E+00  0.00000000E+00  0.00000000E+00
  0.00000000E+00  0.00000000E+00  0.00000000E+00
  0.00000000E+00  0.00000000E+00  0.00000000E+00
  0.00000000E+00  0.00000000E+00  0.00000000E+00
  0.00000000E+00  0.00000000E+00  0.00000000E+00
  0.00000000E+00  0.00000000E+00  0.00000000E+00
  0.00000000E+00  0.00000000E+00  0.00000000E+00
  0.00000000E+00  0.00000000E+00  0.00000000E+00
  0.00000000E+00  0.00000000E+00  0.00000000E+00
  0.00000000E+00  0.00000000E+00  0.00000000E+00
  0.00000000E+00  0.00000000E+00  0.00000000E+00
  0.00000000E+00  0.00000000E+00  0.00000000E+00
  0.00000000E+00  0.00000000E+00  0.00000000E+00
  0.00000000E+00  0.00000000E+00  0.00000000E+00
  0.00000000E+00  0.00000000E+00  0.00000000E+00
  0.00000000E+00  0.00000000E+00  0.00000000E+00
  0.00000000E+00  0.00000000E+00  0.00000000E+00
  0.00000000E+00  0.00000000E+00  0.00000000E+00
  0.00000000E+00  0.00000000E+00  0.00000000E+00
  0.00000000E+00  0.00000000E+00  0.00000000E+00
  0.00000000E+00  0.00000000E+00  0.00000000E+00
  0.00000000E+00  0.00000000E+00  0.00000000E+00
  0.00000000E+00  0.00000000E+00  0.00000000E+00
  0.00000000E+00  0.00000000E+00  0.00000000E+00
  0.00000000E+00  0.00000000E+00  0.00000000E+00
  0.00000000E+00  0.00000000E+00  0.00000000E+00
  0.00000000E+00  0.00000000E+00  0.00000000E+00
  0.00000000E+00  0.00000000E+00  0.00000000E+00
  0.00000000E+00  0.00000000E+00  0.00000000E+00
  0.00000000E+00  0.00000000E+00  0.00000000E+00
  0.00000000E+00  0.00000000E+00  0.00000000E+00
  0.00000000E+00  0.00000000E+00  0.00000000E+00
  0.00000000E+00  0.00000000E+00  0.00000000E+00
  0.00000000E+00  0.00000000E+00  0.00000000E+00
  0.00000000E+00  0.00000000E+00  0.00000000E+00
  0.00000000E+00  0.00000000E+00  0.00000000E+00
  0.00000000E+00  0.00000000E+00  0.00000000E+00
  0.00000000E+00  0.00000000E+00  0.00000000E+00
  0.00000000E+00  0.00000000E+00  0.00000000E+00
  0.00000000E+00  0.00000000E+00  0.00000000E+00
  0.00000000E+00  0.00000000E+00  0.00000000E+00
  0.00000000E+00  0.00000000E+00  0.00000000E+00
  0.00000000E+00  0.00000000E+00  0.00000000E+00
  0.00000000E+00  0.00000000E+00  0.00000000E+00
  0.00000000E+00  0.00000000E+00  0.00000000E+00
  0.00000000E+00  0.00000000E+00  0.00000000E+00
  0.00000000E+00  0.00000000E+00  0.00000000E+00
  0.00000000E+00  0.00000000E+00  0.00000000E+00
  0.00000000E+00  0.00000000E+00  0.00000000E+00
  0.00000000E+00  0.00000000E+00  0.00000000E+00
  0.00000000E+00  0.00000000E+00  0.00000000E+00
  0.00000000E+00  0.00000000E+00  0.00000000E+00
  0.00000000E+00  0.00000000E+00  0.00000000E+00
  0.00000000E+00  0.00000000E+00  0.00000000E+00
  0.00000000E+00  0.00000000E+00  0.00000000E+00
  0.00000000E+00  0.00000000E+00  0.00000000E+00
  0.00000000E+00  0.00000000E+00  0.00000000E+00
  0.00000000E+00  0.00000000E+00  0.00000000E+00
  0.00000000E+00  0.00000000E+00  0.00000000E+00
  0.00000000E+00  0.00000000E+00  0.00000000E+00
  0.00000000E+00  0.00000000E+00  0.00000000E+00
  0.00000000E+00  0.00000000E+00  0.00000000E+00
  0.00000000E+00  0.00000000E+00  0.00000000E+00
