Title
       1.000000000
       0.000000000       8.373865637       9.385543668
       5.418832044       0.000000000       9.385543668
       5.418832044       8.373865637       0.000000000
  Cs   V  Sb
   4  12  20
Cartesian
       5.418832044       4.199837801       9.385543668   Cs
       5.418832044      12.547893473       9.385543668   Cs
       2.709416022       4.186932818       4.692771834   Cs
       8.128248066      12.560798455      14.078315503   Cs
       6.741392907       8.373865637      16.402882771    V
       6.741392907       8.373865637       2.368204565    V
       2.728462994       8.373865637       9.385543668    V
       6.770630339       8.373865637       7.056161627    V
       6.770630339       8.373865637      11.714925710    V
       8.109201094       8.373865637       9.385543668    V
       4.067033749       8.373865637      11.714925710    V
       4.096271181       8.373865637      16.402882771    V
       5.418832044       8.373865637      14.120430798    V
       4.096271181       8.373865637       2.368204565    V
       4.067033749       8.373865637       7.056161627    V
       5.418832044       8.373865637       4.650656539    V
       0.000000000       0.000000000       0.000000000   Sb
       5.418832044       6.111386570      15.643628728   Sb
       5.418832044       6.111386570       3.127458609   Sb
       5.418832044      10.601551913       6.252233674   Sb
       5.418832044      10.601551913      12.518853663   Sb
       5.418832044       8.373865637       9.385543668   Sb
       5.418832044       6.146179361       6.252233674   Sb
       5.418832044       6.146179361      12.518853663   Sb
       5.418832044      10.636344704      15.643628728   Sb
       5.418832044      10.636344704       3.127458609   Sb
       2.709416022       0.000000000       4.692771834   Sb
       2.701538111       6.139404715      10.951399234   Sb
       8.136125977       6.139404715       7.819688103   Sb
       8.136125977      10.608326559      10.951399234   Sb
       2.701538111      10.608326559       7.819688103   Sb
       2.709416022       8.373865637       4.692771834   Sb
       8.136125977       6.139404715      10.951399234   Sb
       2.701538111       6.139404715       7.819688103   Sb
       2.701538111      10.608326559      10.951399234   Sb
       8.136125977      10.608326559       7.819688103   Sb
