CELL_PARAMETERS {angstroms}
       0.000000000      16.747730046      18.771085957
      10.837663287       0.000000000      18.771085957
       5.418831644       8.373865023       0.000000000

ATOMIC_POSITIONS {crystal}
        Cs       0.125385275       0.374614724       0.250770551
        Cs       0.374614724       0.125385276       0.749229449
        Cs       0.125000000       0.125000000       0.250000000
        Cs       0.375000000       0.375000000       0.750000000
         V       0.375901944       0.497935701       0.248196111
         V       0.002064298       0.124098055       0.995871403
         V       0.374121260       0.125878740       0.251757479
         V       0.125587168       0.250318686       0.748825663
         V       0.249681313       0.374412832       0.500637373
         V       0.125878739       0.374121260       0.748242520
         V       0.374412832       0.249681314       0.251174336
         V       0.497935701       0.375901945       0.004128597
         V       0.376121813       0.376121813       0.247756374
         V       0.124098055       0.002064299       0.751803889
         V       0.250318686       0.125587168       0.499362627
         V       0.123878187       0.123878187       0.752243626
        Sb       0.000000000       0.000000000       0.000000000
        Sb       0.349148956       0.484240631       0.031518738
        Sb       0.015759369       0.150851044       0.698297912
        Sb       0.233046038       0.100031826       0.799936348
        Sb       0.399968174       0.266953962       0.466092076
        Sb       0.250000000       0.250000000       0.500000000
        Sb       0.100031826       0.233046038       0.533907924
        Sb       0.266953962       0.399968174       0.200063652
        Sb       0.484240631       0.349148956       0.301702088
        Sb       0.150851044       0.015759369       0.968481262
        Sb      -0.000000000       0.250000000       0.000000000
        Sb       0.350363329       0.233055151       0.032435896
        Sb       0.016217948       0.400363572       0.700726658
        Sb       0.233055150       0.350363329       0.800727145
        Sb       0.400363572       0.016217948       0.466110301
        Sb       0.250000000       0.000000000       0.500000000
        Sb       0.099636427       0.483782052       0.533889699
        Sb       0.266944849       0.149636671       0.199272855
        Sb       0.483782052       0.099636428       0.299273342
        Sb       0.149636671       0.266944849       0.967564104
        Cs       0.125385275       0.874614724       0.250770551
        Cs       0.374614724       0.625385276       0.749229449
        Cs       0.125000000       0.625000000       0.250000000
        Cs       0.375000000       0.875000000       0.750000000
         V       0.375901944       0.997935701       0.248196111
         V       0.002064298       0.624098055       0.995871403
         V       0.374121260       0.625878740       0.251757479
         V       0.125587168       0.750318686       0.748825663
         V       0.249681313       0.874412832       0.500637373
         V       0.125878739       0.874121260       0.748242520
         V       0.374412832       0.749681314       0.251174336
         V       0.497935701       0.875901945       0.004128597
         V       0.376121813       0.876121813       0.247756374
         V       0.124098055       0.502064299       0.751803889
         V       0.250318686       0.625587168       0.499362627
         V       0.123878187       0.623878187       0.752243626
        Sb      -0.000000000       0.500000000      -0.000000000
        Sb       0.349148956       0.984240631       0.031518738
        Sb       0.015759369       0.650851044       0.698297912
        Sb       0.233046038       0.600031826       0.799936348
        Sb       0.399968174       0.766953962       0.466092076
        Sb       0.250000000       0.750000000       0.500000000
        Sb       0.100031826       0.733046038       0.533907924
        Sb       0.266953962       0.899968174       0.200063652
        Sb       0.484240631       0.849148956       0.301702088
        Sb       0.150851044       0.515759369       0.968481262
        Sb      -0.000000000       0.750000000       0.000000000
        Sb       0.350363329       0.733055151       0.032435896
        Sb       0.016217948       0.900363572       0.700726658
        Sb       0.233055150       0.850363329       0.800727145
        Sb       0.400363572       0.516217948       0.466110301
        Sb       0.250000000       0.500000000       0.500000000
        Sb       0.099636427       0.983782052       0.533889699
        Sb       0.266944849       0.649636671       0.199272855
        Sb       0.483782052       0.599636428       0.299273342
        Sb       0.149636671       0.766944849       0.967564104
        Cs       0.625385275       0.374614724       0.250770551
        Cs       0.874614724       0.125385276       0.749229449
        Cs       0.625000000       0.125000000       0.250000000
        Cs       0.875000000       0.375000000       0.750000000
         V       0.875901944       0.497935701       0.248196111
         V       0.502064298       0.124098055       0.995871403
         V       0.874121260       0.125878740       0.251757479
         V       0.625587168       0.250318686       0.748825663
         V       0.749681313       0.374412832       0.500637373
         V       0.625878739       0.374121260       0.748242520
         V       0.874412832       0.249681314       0.251174336
         V       0.997935701       0.375901945       0.004128597
         V       0.876121813       0.376121813       0.247756374
         V       0.624098055       0.002064299       0.751803889
         V       0.750318686       0.125587168       0.499362627
         V       0.623878187       0.123878187       0.752243626
        Sb       0.500000000       0.000000000       0.000000000
        Sb       0.849148956       0.484240631       0.031518738
        Sb       0.515759369       0.150851044       0.698297912
        Sb       0.733046038       0.100031826       0.799936348
        Sb       0.899968174       0.266953962       0.466092076
        Sb       0.750000000       0.250000000       0.500000000
        Sb       0.600031826       0.233046038       0.533907924
        Sb       0.766953962       0.399968174       0.200063652
        Sb       0.984240631       0.349148956       0.301702088
        Sb       0.650851044       0.015759369       0.968481262
        Sb       0.500000000       0.250000000       0.000000000
        Sb       0.850363329       0.233055151       0.032435896
        Sb       0.516217948       0.400363572       0.700726658
        Sb       0.733055150       0.350363329       0.800727145
        Sb       0.900363572       0.016217948       0.466110301
        Sb       0.750000000       0.000000000       0.500000000
        Sb       0.599636427       0.483782052       0.533889699
        Sb       0.766944849       0.149636671       0.199272855
        Sb       0.983782052       0.099636428       0.299273342
        Sb       0.649636671       0.266944849       0.967564104
        Cs       0.625385275       0.874614724       0.250770551
        Cs       0.874614724       0.625385276       0.749229449
        Cs       0.625000000       0.625000000       0.250000000
        Cs       0.875000000       0.875000000       0.750000000
         V       0.875901944       0.997935701       0.248196111
         V       0.502064298       0.624098055       0.995871403
         V       0.874121260       0.625878740       0.251757479
         V       0.625587168       0.750318686       0.748825663
         V       0.749681313       0.874412832       0.500637373
         V       0.625878739       0.874121260       0.748242520
         V       0.874412832       0.749681314       0.251174336
         V       0.997935701       0.875901945       0.004128597
         V       0.876121813       0.876121813       0.247756374
         V       0.624098055       0.502064299       0.751803889
         V       0.750318686       0.625587168       0.499362627
         V       0.623878187       0.623878187       0.752243626
        Sb       0.500000000       0.500000000       0.000000000
        Sb       0.849148956       0.984240631       0.031518738
        Sb       0.515759369       0.650851044       0.698297912
        Sb       0.733046038       0.600031826       0.799936348
        Sb       0.899968174       0.766953962       0.466092076
        Sb       0.750000000       0.750000000       0.500000000
        Sb       0.600031826       0.733046038       0.533907924
        Sb       0.766953962       0.899968174       0.200063652
        Sb       0.984240631       0.849148956       0.301702088
        Sb       0.650851044       0.515759369       0.968481262
        Sb       0.500000000       0.750000000       0.000000000
        Sb       0.850363329       0.733055151       0.032435896
        Sb       0.516217948       0.900363572       0.700726658
        Sb       0.733055150       0.850363329       0.800727145
        Sb       0.900363572       0.516217948       0.466110301
        Sb       0.750000000       0.500000000       0.500000000
        Sb       0.599636427       0.983782052       0.533889699
        Sb       0.766944849       0.649636671       0.199272855
        Sb       0.983782052       0.599636428       0.299273342
        Sb       0.649636671       0.766944849       0.967564104
